/* sos.zpl */

/* Objective function */
min: ;

/* SOS definitions */
SOS
c01_1: x[1] <= 1:0;
c03_1: x[1],x[2],x[1] <= 2:0;
c05_1: x[1],x[2],x[3],x[4],x[5] <= 2:0;
c06_1: x[5]:-10,x[4]:-8,x[5]:-1,x[3]:2,y[2]:62,y[1]:90 <= 1:0;
c07_1: x[1],x[2],x[3],x[4],x[5] <= 2:0;
c08_1: y[1]:2,y[2],y[3],y[4],y[5] <= 2:5;
c08_2: y[1]:3,y[2],y[3],y[4],y[5] <= 2:5;
c08_3: y[1]:4,y[2],y[3],y[4],y[5] <= 2:5;
c08_4: y[1]:5,y[2],y[3],y[4],y[5] <= 2:5;
c08_5: y[1]:6,y[2],y[3],y[4],y[5] <= 2:5;
c02_1: x[1],x[2] <= 1:10;
c04_1: x[4],x[1]:3,x[2]:6 <= 1:60;
